true true false
presolving:
presolving (0 rounds: 0 fast, 0 medium, 0 exhaustive):
 0 deleted vars, 0 deleted constraints, 0 added constraints, 0 tightened bounds, 0 added holes, 0 changed sides, 0 changed coefficients
 0 implications, 0 cliques
presolved problem has 53 variables (53 bin, 0 int, 0 impl, 0 cont) and 45 constraints
     45 constraints of type <linear>
transformed objective value is always integral (scale: 1)
Presolving Time: 0.00

 time | node  | left  |LP iter|LP it/n|mem/heur|mdpt |vars |cons |rows |cuts |sepa|confs|strbr|  dualbound   | primalbound  |  gap   | compl. 
p 0.0s|     1 |     0 |     0 |     - |shiftand|   0 |  53 |  45 |  45 |   0 |  0 |   0 |   0 |      --      | 8.000000e+00 |    Inf | unknown
 time | node  | left  |LP iter|LP it/n|mem/heur|mdpt |vars |cons |rows |cuts |sepa|confs|strbr|  dualbound   | primalbound  |  gap   | compl. 
  0.1s|     1 |     0 |    38 |     - |  3484k |   0 | 827 |  45 |  45 |   0 |  0 |   0 |   0 | 1.000000e+00 | 8.000000e+00 | 700.00%| unknown
 time | node  | left  |LP iter|LP it/n|mem/heur|mdpt |vars |cons |rows |cuts |sepa|confs|strbr|  dualbound   | primalbound  |  gap   | compl. 
 1038s|     1 |     0 |   556 |     - |    12M |   0 |3209 |  45 |  45 |   0 |  0 |   0 |   0 | 6.000000e+00 | 8.000000e+00 |  33.33%| unknown
 time | node  | left  |LP iter|LP it/n|mem/heur|mdpt |vars |cons |rows |cuts |sepa|confs|strbr|  dualbound   | primalbound  |  gap   | compl. 
o1038s|     1 |     0 |  2495 |     - |feaspump|   0 |3209 |  45 |  45 |   0 |  0 |   0 |   0 | 6.000000e+00 | 7.000000e+00 |  16.67%| unknown
 time | node  | left  |LP iter|LP it/n|mem/heur|mdpt |vars |cons |rows |cuts |sepa|confs|strbr|  dualbound   | primalbound  |  gap   | compl. 
 1038s|     1 |     2 |  2495 |     - |    13M |   0 |3209 |  45 |  45 |   0 |  1 |   0 |   0 | 6.000000e+00 | 7.000000e+00 |  16.67%| unknown
 time | node  | left  |LP iter|LP it/n|mem/heur|mdpt |vars |cons |rows |cuts |sepa|confs|strbr|  dualbound   | primalbound  |  gap   | compl. 
 1038s|     2 |     3 |  2512 |  17.0 |    14M |   1 |3209 |  45 |  45 |   0 |  1 |   0 |   0 | 6.000000e+00 | 7.000000e+00 |  16.67%| unknown
 time | node  | left  |LP iter|LP it/n|mem/heur|mdpt |vars |cons |rows |cuts |sepa|confs|strbr|  dualbound   | primalbound  |  gap   | compl. 
 1039s|     3 |     4 |  2548 |  26.5 |    14M |   1 |3209 |  45 |  45 |   0 |  1 |   0 |   0 | 6.000000e+00 | 7.000000e+00 |  16.67%| unknown
 time | node  | left  |LP iter|LP it/n|mem/heur|mdpt |vars |cons |rows |cuts |sepa|confs|strbr|  dualbound   | primalbound  |  gap   | compl. 
 1039s|     4 |     5 |  3381 | 295.3 |    15M |   2 |3209 |  45 |  45 |   0 |  1 |   0 |   0 | 6.000000e+00 | 7.000000e+00 |  16.67%| unknown
 time | node  | left  |LP iter|LP it/n|mem/heur|mdpt |vars |cons |rows |cuts |sepa|confs|strbr|  dualbound   | primalbound  |  gap   | compl. 
 1039s|     5 |     6 |  3470 | 243.8 |    15M |   2 |3209 |  45 |  45 |   0 |  1 |   0 |   0 | 6.000000e+00 | 7.000000e+00 |  16.67%| unknown
 time | node  | left  |LP iter|LP it/n|mem/heur|mdpt |vars |cons |rows |cuts |sepa|confs|strbr|  dualbound   | primalbound  |  gap   | compl. 
 1039s|     6 |     7 |  3490 | 199.0 |    15M |   3 |3209 |  45 |  45 |   0 |  1 |   0 |   0 | 6.000000e+00 | 7.000000e+00 |  16.67%| unknown
 time | node  | left  |LP iter|LP it/n|mem/heur|mdpt |vars |cons |rows |cuts |sepa|confs|strbr|  dualbound   | primalbound  |  gap   | compl. 
 1039s|     7 |     8 |  3492 | 166.2 |    15M |   4 |3209 |  45 |  45 |   0 |  1 |   0 |   0 | 6.000000e+00 | 7.000000e+00 |  16.67%| unknown
 time | node  | left  |LP iter|LP it/n|mem/heur|mdpt |vars |cons |rows |cuts |sepa|confs|strbr|  dualbound   | primalbound  |  gap   | compl. 
 1039s|     8 |     9 |  3527 | 147.4 |    15M |   4 |3209 |  45 |  45 |   0 |  1 |   0 |   0 | 6.000000e+00 | 7.000000e+00 |  16.67%| unknown
 time | node  | left  |LP iter|LP it/n|mem/heur|mdpt |vars |cons |rows |cuts |sepa|confs|strbr|  dualbound   | primalbound  |  gap   | compl. 
 1039s|     9 |    10 |  3595 | 137.5 |    15M |   5 |3209 |  45 |  45 |   0 |  1 |   0 |   0 | 6.000000e+00 | 7.000000e+00 |  16.67%| unknown
 time | node  | left  |LP iter|LP it/n|mem/heur|mdpt |vars |cons |rows |cuts |sepa|confs|strbr|  dualbound   | primalbound  |  gap   | compl. 
 1039s|    10 |    11 |  3596 | 122.3 |    15M |   5 |3209 |  45 |  45 |   0 |  1 |   0 |   0 | 6.000000e+00 | 7.000000e+00 |  16.67%| unknown
 time | node  | left  |LP iter|LP it/n|mem/heur|mdpt |vars |cons |rows |cuts |sepa|confs|strbr|  dualbound   | primalbound  |  gap   | compl. 
 1040s|    11 |    12 |  3638 | 114.3 |    15M |   6 |3209 |  45 |  45 |   0 |  1 |   0 |   0 | 6.000000e+00 | 7.000000e+00 |  16.67%| unknown
 time | node  | left  |LP iter|LP it/n|mem/heur|mdpt |vars |cons |rows |cuts |sepa|confs|strbr|  dualbound   | primalbound  |  gap   | compl. 
 1040s|    12 |    13 |  3911 | 128.7 |    16M |   6 |3209 |  45 |  45 |   0 |  1 |   0 |   0 | 6.000000e+00 | 7.000000e+00 |  16.67%| unknown
 time | node  | left  |LP iter|LP it/n|mem/heur|mdpt |vars |cons |rows |cuts |sepa|confs|strbr|  dualbound   | primalbound  |  gap   | compl. 
 1040s|    13 |    14 |  3983 | 124.0 |    16M |   6 |3209 |  45 |  45 |   0 |  1 |   0 |   0 | 6.000000e+00 | 7.000000e+00 |  16.67%| unknown
 time | node  | left  |LP iter|LP it/n|mem/heur|mdpt |vars |cons |rows |cuts |sepa|confs|strbr|  dualbound   | primalbound  |  gap   | compl. 
 1040s|    14 |    15 |  4034 | 118.4 |    16M |   7 |3209 |  45 |  45 |   0 |  1 |   0 |   0 | 6.000000e+00 | 7.000000e+00 |  16.67%| unknown
 time | node  | left  |LP iter|LP it/n|mem/heur|mdpt |vars |cons |rows |cuts |sepa|confs|strbr|  dualbound   | primalbound  |  gap   | compl. 
 1041s|    15 |    16 |  4241 | 124.7 |    16M |   7 |3209 |  45 |  45 |   0 |  1 |   0 |   0 | 6.000000e+00 | 7.000000e+00 |  16.67%| unknown
 time | node  | left  |LP iter|LP it/n|mem/heur|mdpt |vars |cons |rows |cuts |sepa|confs|strbr|  dualbound   | primalbound  |  gap   | compl. 
 1041s|    16 |    17 |  4909 | 160.9 |    16M |   7 |3209 |  45 |  45 |   0 |  1 |   0 |   0 | 6.000000e+00 | 7.000000e+00 |  16.67%| unknown
 time | node  | left  |LP iter|LP it/n|mem/heur|mdpt |vars |cons |rows |cuts |sepa|confs|strbr|  dualbound   | primalbound  |  gap   | compl. 
 1041s|    17 |    18 |  4926 | 151.9 |    16M |   8 |3209 |  45 |  45 |   0 |  1 |   0 |   0 | 6.000000e+00 | 7.000000e+00 |  16.67%| unknown
 time | node  | left  |LP iter|LP it/n|mem/heur|mdpt |vars |cons |rows |cuts |sepa|confs|strbr|  dualbound   | primalbound  |  gap   | compl. 
 1041s|    18 |    19 |  5079 | 152.0 |    16M |   8 |3209 |  45 |  45 |   0 |  1 |   0 |   0 | 6.000000e+00 | 7.000000e+00 |  16.67%| unknown
 time | node  | left  |LP iter|LP it/n|mem/heur|mdpt |vars |cons |rows |cuts |sepa|confs|strbr|  dualbound   | primalbound  |  gap   | compl. 
 1042s|    19 |    20 |  5583 | 171.6 |    16M |   8 |3209 |  45 |  45 |   0 |  1 |   0 |   0 | 6.000000e+00 | 7.000000e+00 |  16.67%| unknown
 time | node  | left  |LP iter|LP it/n|mem/heur|mdpt |vars |cons |rows |cuts |sepa|confs|strbr|  dualbound   | primalbound  |  gap   | compl. 
 1042s|    20 |    21 |  5658 | 166.5 |    16M |   8 |3209 |  45 |  45 |   0 |  1 |   0 |   0 | 6.000000e+00 | 7.000000e+00 |  16.67%| unknown
 time | node  | left  |LP iter|LP it/n|mem/heur|mdpt |vars |cons |rows |cuts |sepa|confs|strbr|  dualbound   | primalbound  |  gap   | compl. 
 1042s|    21 |    22 |  5750 | 162.8 |    16M |   8 |3209 |  45 |  45 |   0 |  1 |   0 |   0 | 6.000000e+00 | 7.000000e+00 |  16.67%| unknown
 time | node  | left  |LP iter|LP it/n|mem/heur|mdpt |vars |cons |rows |cuts |sepa|confs|strbr|  dualbound   | primalbound  |  gap   | compl. 
 1042s|    22 |    23 |  6131 | 173.1 |    16M |   8 |3209 |  45 |  45 |   0 |  1 |   0 |   0 | 6.000000e+00 | 7.000000e+00 |  16.67%| unknown
 time | node  | left  |LP iter|LP it/n|mem/heur|mdpt |vars |cons |rows |cuts |sepa|confs|strbr|  dualbound   | primalbound  |  gap   | compl. 
 1042s|    23 |    24 |  6633 | 188.1 |    16M |   8 |3209 |  45 |  45 |   0 |  1 |   0 |   0 | 6.000000e+00 | 7.000000e+00 |  16.67%| unknown
 time | node  | left  |LP iter|LP it/n|mem/heur|mdpt |vars |cons |rows |cuts |sepa|confs|strbr|  dualbound   | primalbound  |  gap   | compl. 
 1043s|    24 |    25 |  7507 | 217.9 |    16M |   8 |3209 |  45 |  45 |   0 |  1 |   0 |   0 | 6.000000e+00 | 7.000000e+00 |  16.67%| unknown
 time | node  | left  |LP iter|LP it/n|mem/heur|mdpt |vars |cons |rows |cuts |sepa|confs|strbr|  dualbound   | primalbound  |  gap   | compl. 
 1043s|    25 |    26 |  7790 | 220.6 |    16M |   8 |3209 |  45 |  45 |   0 |  1 |   0 |   0 | 6.000000e+00 | 7.000000e+00 |  16.67%| unknown
 time | node  | left  |LP iter|LP it/n|mem/heur|mdpt |vars |cons |rows |cuts |sepa|confs|strbr|  dualbound   | primalbound  |  gap   | compl. 
 1043s|    26 |    27 |  7874 | 215.2 |    16M |   8 |3209 |  45 |  45 |   0 |  1 |   0 |   0 | 6.000000e+00 | 7.000000e+00 |  16.67%| unknown
 time | node  | left  |LP iter|LP it/n|mem/heur|mdpt |vars |cons |rows |cuts |sepa|confs|strbr|  dualbound   | primalbound  |  gap   | compl. 
 1043s|    27 |    28 |  8064 | 214.2 |    16M |   8 |3209 |  45 |  45 |   0 |  1 |   0 |   0 | 6.000000e+00 | 7.000000e+00 |  16.67%| unknown
 time | node  | left  |LP iter|LP it/n|mem/heur|mdpt |vars |cons |rows |cuts |sepa|confs|strbr|  dualbound   | primalbound  |  gap   | compl. 
 1043s|    28 |    29 |  8417 | 219.3 |    16M |   8 |3209 |  45 |  45 |   0 |  1 |   0 |   0 | 6.000000e+00 | 7.000000e+00 |  16.67%| unknown
 time | node  | left  |LP iter|LP it/n|mem/heur|mdpt |vars |cons |rows |cuts |sepa|confs|strbr|  dualbound   | primalbound  |  gap   | compl. 
 1044s|    29 |    30 |  8625 | 218.9 |    16M |   8 |3209 |  45 |  45 |   0 |  1 |   0 |   0 | 6.000000e+00 | 7.000000e+00 |  16.67%| unknown
 time | node  | left  |LP iter|LP it/n|mem/heur|mdpt |vars |cons |rows |cuts |sepa|confs|strbr|  dualbound   | primalbound  |  gap   | compl. 
 1044s|    30 |    31 |  8755 | 215.9 |    16M |   8 |3209 |  45 |  45 |   0 |  1 |   0 |   0 | 6.000000e+00 | 7.000000e+00 |  16.67%| unknown
 time | node  | left  |LP iter|LP it/n|mem/heur|mdpt |vars |cons |rows |cuts |sepa|confs|strbr|  dualbound   | primalbound  |  gap   | compl. 
 1044s|    31 |    32 |  9033 | 217.9 |    16M |   8 |3209 |  45 |  45 |   0 |  1 |   0 |   0 | 6.000000e+00 | 7.000000e+00 |  16.67%| unknown
 time | node  | left  |LP iter|LP it/n|mem/heur|mdpt |vars |cons |rows |cuts |sepa|confs|strbr|  dualbound   | primalbound  |  gap   | compl. 
 1061s|    32 |    33 |  9535 | 227.1 |    21M |   9 |4229 |  45 |  45 |   0 |  1 |   0 |   0 | 6.000000e+00 | 7.000000e+00 |  16.67%| unknown
 time | node  | left  |LP iter|LP it/n|mem/heur|mdpt |vars |cons |rows |cuts |sepa|confs|strbr|  dualbound   | primalbound  |  gap   | compl. 
 1062s|    33 |    34 | 10411 | 247.4 |    21M |   9 |4229 |  45 |  45 |   0 |  1 |   0 |   0 | 6.000000e+00 | 7.000000e+00 |  16.67%| unknown
 time | node  | left  |LP iter|LP it/n|mem/heur|mdpt |vars |cons |rows |cuts |sepa|confs|strbr|  dualbound   | primalbound  |  gap   | compl. 
 1062s|    34 |    35 | 10525 | 243.3 |    21M |   9 |4229 |  45 |  45 |   0 |  1 |   0 |   0 | 6.000000e+00 | 7.000000e+00 |  16.67%| unknown
 time | node  | left  |LP iter|LP it/n|mem/heur|mdpt |vars |cons |rows |cuts |sepa|confs|strbr|  dualbound   | primalbound  |  gap   | compl. 
 1063s|    35 |    36 | 10600 | 238.4 |    21M |   9 |4229 |  45 |  45 |   0 |  1 |   0 |   0 | 6.000000e+00 | 7.000000e+00 |  16.67%| unknown
 time | node  | left  |LP iter|LP it/n|mem/heur|mdpt |vars |cons |rows |cuts |sepa|confs|strbr|  dualbound   | primalbound  |  gap   | compl. 
 1063s|    36 |    37 | 10712 | 234.8 |    22M |   9 |4229 |  45 |  45 |   0 |  1 |   0 |   0 | 6.000000e+00 | 7.000000e+00 |  16.67%| unknown
 time | node  | left  |LP iter|LP it/n|mem/heur|mdpt |vars |cons |rows |cuts |sepa|confs|strbr|  dualbound   | primalbound  |  gap   | compl. 
 1063s|    37 |    38 | 10775 | 230.0 |    22M |   9 |4229 |  45 |  45 |   0 |  1 |   0 |   0 | 6.000000e+00 | 7.000000e+00 |  16.67%| unknown
 time | node  | left  |LP iter|LP it/n|mem/heur|mdpt |vars |cons |rows |cuts |sepa|confs|strbr|  dualbound   | primalbound  |  gap   | compl. 
 1063s|    38 |    39 | 10946 | 228.4 |    22M |   9 |4229 |  45 |  45 |   0 |  1 |   0 |   0 | 6.000000e+00 | 7.000000e+00 |  16.67%| unknown
 time | node  | left  |LP iter|LP it/n|mem/heur|mdpt |vars |cons |rows |cuts |sepa|confs|strbr|  dualbound   | primalbound  |  gap   | compl. 
 1064s|    39 |    40 | 11056 | 225.3 |    22M |   9 |4229 |  45 |  45 |   0 |  1 |   0 |   0 | 6.000000e+00 | 7.000000e+00 |  16.67%| unknown
 time | node  | left  |LP iter|LP it/n|mem/heur|mdpt |vars |cons |rows |cuts |sepa|confs|strbr|  dualbound   | primalbound  |  gap   | compl. 
 1064s|    40 |    41 | 11153 | 222.0 |    22M |   9 |4229 |  45 |  45 |   0 |  1 |   0 |   0 | 6.000000e+00 | 7.000000e+00 |  16.67%| unknown
 time | node  | left  |LP iter|LP it/n|mem/heur|mdpt |vars |cons |rows |cuts |sepa|confs|strbr|  dualbound   | primalbound  |  gap   | compl. 
 1064s|    41 |    42 | 11179 | 217.1 |    23M |  10 |4229 |  45 |  45 |   0 |  1 |   0 |   0 | 6.000000e+00 | 7.000000e+00 |  16.67%| unknown
 time | node  | left  |LP iter|LP it/n|mem/heur|mdpt |vars |cons |rows |cuts |sepa|confs|strbr|  dualbound   | primalbound  |  gap   | compl. 
 1064s|    42 |    43 | 11236 | 213.2 |    23M |  10 |4229 |  45 |  45 |   0 |  1 |   0 |   0 | 6.000000e+00 | 7.000000e+00 |  16.67%| unknown
 time | node  | left  |LP iter|LP it/n|mem/heur|mdpt |vars |cons |rows |cuts |sepa|confs|strbr|  dualbound   | primalbound  |  gap   | compl. 
 1065s|    43 |    44 | 11290 | 209.4 |    23M |  10 |4229 |  45 |  45 |   0 |  1 |   0 |   0 | 6.000000e+00 | 7.000000e+00 |  16.67%| unknown
 time | node  | left  |LP iter|LP it/n|mem/heur|mdpt |vars |cons |rows |cuts |sepa|confs|strbr|  dualbound   | primalbound  |  gap   | compl. 
 1065s|    44 |    45 | 11319 | 205.2 |    23M |  11 |4229 |  45 |  45 |   0 |  1 |   0 |   0 | 6.000000e+00 | 7.000000e+00 |  16.67%| unknown
 time | node  | left  |LP iter|LP it/n|mem/heur|mdpt |vars |cons |rows |cuts |sepa|confs|strbr|  dualbound   | primalbound  |  gap   | compl. 
 1065s|    45 |    46 | 11335 | 200.9 |    23M |  12 |4229 |  45 |  45 |   0 |  1 |   0 |   0 | 6.000000e+00 | 7.000000e+00 |  16.67%| unknown
 time | node  | left  |LP iter|LP it/n|mem/heur|mdpt |vars |cons |rows |cuts |sepa|confs|strbr|  dualbound   | primalbound  |  gap   | compl. 
 1066s|    46 |    47 | 11627 | 202.9 |    23M |  13 |4229 |  45 |  45 |   0 |  1 |   0 |   0 | 6.000000e+00 | 7.000000e+00 |  16.67%| unknown
 time | node  | left  |LP iter|LP it/n|mem/heur|mdpt |vars |cons |rows |cuts |sepa|confs|strbr|  dualbound   | primalbound  |  gap   | compl. 
 1066s|    47 |    48 | 11784 | 201.9 |    23M |  13 |4680 |  45 |  45 |   0 |  1 |   0 |   0 | 6.000000e+00 | 7.000000e+00 |  16.67%| unknown
 time | node  | left  |LP iter|LP it/n|mem/heur|mdpt |vars |cons |rows |cuts |sepa|confs|strbr|  dualbound   | primalbound  |  gap   | compl. 
 1066s|    48 |    49 | 12010 | 202.4 |    23M |  13 |4680 |  45 |  45 |   0 |  1 |   0 |   0 | 6.000000e+00 | 7.000000e+00 |  16.67%| unknown
 time | node  | left  |LP iter|LP it/n|mem/heur|mdpt |vars |cons |rows |cuts |sepa|confs|strbr|  dualbound   | primalbound  |  gap   | compl. 
 1067s|    49 |    50 | 12094 | 200.0 |    23M |  13 |4680 |  45 |  45 |   0 |  1 |   0 |   0 | 6.000000e+00 | 7.000000e+00 |  16.67%| unknown
 time | node  | left  |LP iter|LP it/n|mem/heur|mdpt |vars |cons |rows |cuts |sepa|confs|strbr|  dualbound   | primalbound  |  gap   | compl. 
 1090s|    50 |    51 | 12334 | 200.8 |    26M |  13 |5582 |  45 |  45 |   0 |  1 |   0 |   0 | 6.000000e+00 | 7.000000e+00 |  16.67%| unknown
 time | node  | left  |LP iter|LP it/n|mem/heur|mdpt |vars |cons |rows |cuts |sepa|confs|strbr|  dualbound   | primalbound  |  gap   | compl. 
 1091s|    51 |    52 | 12397 | 198.0 |    26M |  13 |5582 |  45 |  45 |   0 |  1 |   0 |   0 | 6.000000e+00 | 7.000000e+00 |  16.67%| unknown
 time | node  | left  |LP iter|LP it/n|mem/heur|mdpt |vars |cons |rows |cuts |sepa|confs|strbr|  dualbound   | primalbound  |  gap   | compl. 
 1091s|    52 |    53 | 12448 | 195.2 |    26M |  14 |5582 |  45 |  45 |   0 |  1 |   0 |   0 | 6.000000e+00 | 7.000000e+00 |  16.67%| unknown
 time | node  | left  |LP iter|LP it/n|mem/heur|mdpt |vars |cons |rows |cuts |sepa|confs|strbr|  dualbound   | primalbound  |  gap   | compl. 
 1092s|    53 |    54 | 12509 | 192.6 |    26M |  15 |5582 |  45 |  45 |   0 |  1 |   0 |   0 | 6.000000e+00 | 7.000000e+00 |  16.67%| unknown
 time | node  | left  |LP iter|LP it/n|mem/heur|mdpt |vars |cons |rows |cuts |sepa|confs|strbr|  dualbound   | primalbound  |  gap   | compl. 
 1092s|    54 |    55 | 12743 | 193.4 |    26M |  16 |5582 |  45 |  45 |   0 |  1 |   0 |   0 | 6.000000e+00 | 7.000000e+00 |  16.67%| unknown
 time | node  | left  |LP iter|LP it/n|mem/heur|mdpt |vars |cons |rows |cuts |sepa|confs|strbr|  dualbound   | primalbound  |  gap   | compl. 
 1093s|    55 |    56 | 12808 | 191.0 |    26M |  16 |5582 |  45 |  45 |   0 |  1 |   0 |   0 | 6.000000e+00 | 7.000000e+00 |  16.67%| unknown
 time | node  | left  |LP iter|LP it/n|mem/heur|mdpt |vars |cons |rows |cuts |sepa|confs|strbr|  dualbound   | primalbound  |  gap   | compl. 
 1093s|    56 |    57 | 13033 | 191.6 |    27M |  16 |5582 |  45 |  45 |   0 |  1 |   0 |   0 | 6.000000e+00 | 7.000000e+00 |  16.67%| unknown
 time | node  | left  |LP iter|LP it/n|mem/heur|mdpt |vars |cons |rows |cuts |sepa|confs|strbr|  dualbound   | primalbound  |  gap   | compl. 
 1094s|    57 |    58 | 13104 | 189.4 |    27M |  16 |5582 |  45 |  45 |   0 |  1 |   0 |   0 | 6.000000e+00 | 7.000000e+00 |  16.67%| unknown
 time | node  | left  |LP iter|LP it/n|mem/heur|mdpt |vars |cons |rows |cuts |sepa|confs|strbr|  dualbound   | primalbound  |  gap   | compl. 
 1094s|    58 |    59 | 13114 | 186.3 |    27M |  16 |5582 |  45 |  45 |   0 |  1 |   0 |   0 | 6.000000e+00 | 7.000000e+00 |  16.67%| unknown
 time | node  | left  |LP iter|LP it/n|mem/heur|mdpt |vars |cons |rows |cuts |sepa|confs|strbr|  dualbound   | primalbound  |  gap   | compl. 
 1095s|    59 |    60 | 13178 | 184.2 |    27M |  17 |5582 |  45 |  45 |   0 |  1 |   0 |   0 | 6.000000e+00 | 7.000000e+00 |  16.67%| unknown
 time | node  | left  |LP iter|LP it/n|mem/heur|mdpt |vars |cons |rows |cuts |sepa|confs|strbr|  dualbound   | primalbound  |  gap   | compl. 
 1095s|    60 |    61 | 13400 | 184.8 |    28M |  17 |6038 |  45 |  45 |   0 |  1 |   0 |   0 | 6.000000e+00 | 7.000000e+00 |  16.67%| unknown
 time | node  | left  |LP iter|LP it/n|mem/heur|mdpt |vars |cons |rows |cuts |sepa|confs|strbr|  dualbound   | primalbound  |  gap   | compl. 
d1096s|    61 |     0 | 13468 | 182.9 |pscostdi|  17 |6038 |  45 |  45 |   0 |  1 |   0 |   0 | 6.000000e+00 | 6.000000e+00 |   0.00%| 100.00%

SCIP Status        : problem is solved [optimal solution found]
Solving Time (sec) : 1095.74
Solving Nodes      : 61
Primal Bound       : +6.00000000000000e+00 (5 solutions)
Dual Bound         : +6.00000000000000e+00
Gap                : 0.00 %
Running with parallel: True bidir: True symbreak: False
Number of Nodes:  45
47.354732510288066% holds
starting cheapest insertion heuristic
Heuristic without TSP improvement:  8
Heuristic without TSP improvement time:  0.1
Heuristic Sol:  8
Heuristic total time:  0.1
[[12, 34, 42, 4, 14, 13, 6, 18], [32, 39, 19, 20, 3, 11], [33, 26, 37, 22, 10, 24, 2], [36, 35, 40, 0, 9, 23, 8, 28], [5, 31, 30, 29, 1], [41, 16, 17, 15, 25, 7], [44, 38, 27], [43, 21]]
Instance path:  /home/htc/mghannam/SCRATCH/lccp-rust/data/at62_ftv44.npcc
Timelimit:  7200
Heuristic without TSP improvement:  8
Heuristic without TSP improvement time:  0.1
Heuristic Sol:  8
Heuristic total time:  0.4
at 1 zero_duals: 37
at1, LP obj: 8.0 n_added_paths: 774
at 1 zero_duals: 28
at1, LP obj: 8.0 n_added_paths: 668
at 1 zero_duals: 14
at1, LP obj: 7.32328190743338 n_added_paths: 757
at 1 zero_duals: 7
at1, LP obj: 6.110393580698127 n_added_paths: 363
at 1 zero_duals: 7
Switching to elementary pricing
at1, LP obj: 5.707358813462636 n_added_paths: 389
at 1 zero_duals: 8
Switching to elementary pricing
at1, LP obj: 5.478753541076486 n_added_paths: 196
updated lowerbound from 1.0 to 4
at 1 zero_duals: 8
Switching to elementary pricing
at1, LP obj: 5.430398572278405 n_added_paths: 9
updated lowerbound from 4.0 to 6
Gap too small = 0, stopping pricing with lb = 6
Gap too small = 0, stopping pricing with lb = 6
Gap too small = 0, stopping pricing with lb = 6
Gap too small = 0, stopping pricing with lb = 6
Gap too small = 0, stopping pricing with lb = 6
Gap too small = 0, stopping pricing with lb = 6
Gap too small = 0, stopping pricing with lb = 6
Gap too small = 0, stopping pricing with lb = 6
Gap too small = 0, stopping pricing with lb = 6
Gap too small = 0, stopping pricing with lb = 6
Gap too small = 0, stopping pricing with lb = 6
Gap too small = 0, stopping pricing with lb = 6
Gap too small = 0, stopping pricing with lb = 6
Gap too small = 0, stopping pricing with lb = 6
Gap too small = 0, stopping pricing with lb = 6
Gap too small = 0, stopping pricing with lb = 6
Gap too small = 0, stopping pricing with lb = 6
Gap too small = 0, stopping pricing with lb = 6
Gap too small = 0, stopping pricing with lb = 6
Gap too small = 0, stopping pricing with lb = 6
Gap too small = 0, stopping pricing with lb = 6
Gap too small = 0, stopping pricing with lb = 6
Gap too small = 0, stopping pricing with lb = 6
Gap too small = 0, stopping pricing with lb = 6
Gap too small = 0, stopping pricing with lb = 6
Gap too small = 0, stopping pricing with lb = 6
Gap too small = 0, stopping pricing with lb = 6
Gap too small = 0, stopping pricing with lb = 6
Gap too small = 0, stopping pricing with lb = 6
Gap too small = 0, stopping pricing with lb = 6
Gap too small = 0, stopping pricing with lb = 6
at 57 zero_duals: 9
Switching to elementary pricing
at57, LP obj: 6.012643678160919 n_added_paths: 1020
Gap too small = 0, stopping pricing with lb = 6
Gap too small = 0, stopping pricing with lb = 6
Gap too small = 0, stopping pricing with lb = 6
Gap too small = 0, stopping pricing with lb = 6
Gap too small = 0, stopping pricing with lb = 6
Gap too small = 0, stopping pricing with lb = 6
Gap too small = 0, stopping pricing with lb = 6
Gap too small = 0, stopping pricing with lb = 6
Gap too small = 0, stopping pricing with lb = 6
Gap too small = 0, stopping pricing with lb = 6
Gap too small = 0, stopping pricing with lb = 6
Gap too small = 0, stopping pricing with lb = 6
Gap too small = 0, stopping pricing with lb = 6
Gap too small = 0, stopping pricing with lb = 6
Gap too small = 0, stopping pricing with lb = 6
at 89 zero_duals: 14
at89, LP obj: 6.130193905817175 n_added_paths: 451
Gap too small = 0, stopping pricing with lb = 6
Gap too small = 0, stopping pricing with lb = 6
Gap too small = 0, stopping pricing with lb = 6
at 98 zero_duals: 6
Switching to elementary pricing
at98, LP obj: 6.0545153043598425 n_added_paths: 902
Gap too small = 0, stopping pricing with lb = 6
Gap too small = 0, stopping pricing with lb = 6
Gap too small = 0, stopping pricing with lb = 6
Gap too small = 0, stopping pricing with lb = 6
Gap too small = 0, stopping pricing with lb = 6
Gap too small = 0, stopping pricing with lb = 6
Gap too small = 0, stopping pricing with lb = 6
Gap too small = 0, stopping pricing with lb = 6
Gap too small = 0, stopping pricing with lb = 6
Gap too small = 0, stopping pricing with lb = 6
at 115 zero_duals: 14
at115, LP obj: 6.101522842639594 n_added_paths: 456
Gap too small = 0, stopping pricing with lb = 6
Gap too small = 0, stopping pricing with lb = 6
Best solution found:
[15, 17, 16, 38, 34, 27, 44, 15] 1.0 0.9999999999999986
checking cycle [15, 17, 16, 38, 34, 27, 44, 15]
[15, 17, 16, 38, 34, 27, 44, 15] 283 275
[7, 41, 25, 21, 39, 19, 7] 1.0 0.9999999999999996
checking cycle [7, 41, 25, 21, 39, 19, 7]
[7, 41, 25, 21, 39, 19, 7] 341 331
[33, 2, 24, 10, 22, 3, 11, 20, 32, 33] 1.0 0.9999999999999992
checking cycle [33, 2, 24, 10, 22, 3, 11, 20, 32, 33]
[33, 2, 24, 10, 22, 3, 11, 20, 32, 33] 409 399
[35, 31, 37, 43, 30, 40, 9, 23, 35] 1.0 0.9999999999999986
checking cycle [35, 31, 37, 43, 30, 40, 9, 23, 35]
[35, 31, 37, 43, 30, 40, 9, 23, 35] 287 274
[8, 28, 5, 0, 1, 29, 26, 6, 13, 18, 12, 8] 1.0 0.9999999999999989
checking cycle [8, 28, 5, 0, 1, 29, 26, 6, 13, 18, 12, 8]
[8, 28, 5, 0, 1, 29, 26, 6, 13, 18, 12, 8] 478 476
[36, 4, 14, 42, 36] 1.0 0.9999999999999962
checking cycle [36, 4, 14, 42, 36]
[36, 4, 14, 42, 36] 326 228
